Traveling Salesman Problem/TSP_generados/Aleatorio1621103383_12.tsp
NAME: Aleatorio1621103383_12.tsp
COMMENT: Randomly generated scenario
TYPE: TSP
DIMENSION: 12
EDGE_WEIGHT_TYPE: ATT
NODE_COORD_SECTION
1 13.17 0.46
2 43.31 30.51
3 43.66 17.84
4 20.79 10.26
5 9.48 40.6
6 24.49 3.87
7 44.44 3.7
8 23.95 46.11
9 37.51 27.94
10 38.78 5.18
11 27.42 8.69
12 16.49 24.54
