Traveling Salesman Problem/TSP_generados/Aleatorio1621103383_12.opt.tour
NAME: Aleatorio1621103383_12.opt.tour
COMMENT: Optimal solution for Aleatorio1621103383_12 (151.38966734877587)
TYPE: TOUR
DIMENSION: 12
TOUR_SECTION
1 6 11 10 7 3 2 9 8 5 12 4
-1
EOF
